c Reduced graph for queen10_10gb generated by Cyril Grelier
p edge 100 1470
e 1 3
e 1 4
e 1 6
e 1 8
e 1 10
e 1 14
e 1 16
e 1 23
e 1 28
e 1 29
e 1 35
e 1 36
e 1 39
e 1 41
e 1 46
e 1 48
e 1 49
e 1 53
e 1 54
e 1 55
e 1 59
e 1 60
e 1 62
e 1 63
e 1 67
e 1 71
e 1 74
e 1 76
e 1 81
e 1 84
e 1 89
e 1 94
e 1 95
e 2 3
e 2 5
e 2 7
e 2 8
e 2 9
e 2 17
e 2 18
e 2 24
e 2 36
e 2 38
e 2 40
e 2 41
e 2 45
e 2 48
e 2 49
e 2 53
e 2 55
e 2 56
e 2 59
e 2 62
e 2 64
e 2 65
e 2 68
e 2 74
e 2 83
e 2 86
e 2 88
e 2 90
e 2 91
e 2 96
e 2 100
e 3 7
e 3 8
e 3 10
e 3 11
e 3 14
e 3 16
e 3 17
e 3 18
e 3 20
e 3 28
e 3 34
e 3 39
e 3 43
e 3 45
e 3 46
e 3 54
e 3 62
e 3 65
e 3 66
e 3 69
e 3 71
e 3 74
e 3 77
e 3 79
e 3 94
e 3 97
e 3 100
e 4 5
e 4 6
e 4 7
e 4 16
e 4 23
e 4 26
e 4 32
e 4 33
e 4 34
e 4 35
e 4 39
e 4 42
e 4 48
e 4 49
e 4 53
e 4 59
e 4 70
e 4 82
e 4 83
e 4 84
e 4 87
e 4 91
e 4 92
e 4 93
e 4 94
e 4 98
e 5 6
e 5 7
e 5 17
e 5 19
e 5 21
e 5 26
e 5 32
e 5 34
e 5 35
e 5 36
e 5 38
e 5 45
e 5 50
e 5 53
e 5 59
e 5 70
e 5 71
e 5 72
e 5 74
e 5 80
e 5 83
e 5 86
e 5 90
e 5 98
e 5 100
e 6 7
e 6 8
e 6 14
e 6 16
e 6 25
e 6 26
e 6 29
e 6 30
e 6 32
e 6 34
e 6 36
e 6 40
e 6 41
e 6 57
e 6 59
e 6 64
e 6 67
e 6 69
e 6 70
e 6 72
e 6 76
e 6 81
e 6 89
e 6 98
e 7 12
e 7 15
e 7 20
e 7 26
e 7 28
e 7 30
e 7 31
e 7 32
e 7 34
e 7 37
e 7 46
e 7 48
e 7 53
e 7 55
e 7 59
e 7 62
e 7 67
e 7 70
e 7 78
e 7 92
e 7 98
e 7 100
e 8 9
e 8 10
e 8 13
e 8 16
e 8 18
e 8 21
e 8 22
e 8 28
e 8 30
e 8 37
e 8 46
e 8 49
e 8 54
e 8 56
e 8 59
e 8 64
e 8 65
e 8 68
e 8 69
e 8 71
e 8 72
e 8 74
e 8 81
e 8 85
e 8 87
e 8 88
e 8 96
e 9 19
e 9 20
e 9 27
e 9 28
e 9 29
e 9 31
e 9 33
e 9 35
e 9 36
e 9 49
e 9 52
e 9 56
e 9 58
e 9 59
e 9 61
e 9 63
e 9 65
e 9 66
e 9 68
e 9 79
e 9 83
e 9 85
e 9 88
e 9 91
e 9 94
e 9 96
e 9 97
e 10 14
e 10 16
e 10 24
e 10 25
e 10 27
e 10 28
e 10 31
e 10 32
e 10 33
e 10 38
e 10 44
e 10 46
e 10 52
e 10 54
e 10 60
e 10 70
e 10 71
e 10 74
e 10 78
e 10 84
e 10 86
e 10 91
e 10 92
e 10 95
e 11 12
e 11 14
e 11 20
e 11 27
e 11 28
e 11 39
e 11 40
e 11 45
e 11 47
e 11 60
e 11 65
e 11 66
e 11 75
e 11 76
e 11 79
e 11 80
e 11 83
e 11 84
e 11 85
e 11 86
e 11 87
e 11 88
e 11 90
e 11 95
e 11 98
e 11 99
e 12 13
e 12 15
e 12 20
e 12 25
e 12 27
e 12 29
e 12 30
e 12 31
e 12 37
e 12 43
e 12 46
e 12 47
e 12 53
e 12 55
e 12 56
e 12 58
e 12 72
e 12 76
e 12 79
e 12 80
e 12 82
e 12 86
e 12 87
e 12 88
e 12 99
e 13 14
e 13 15
e 13 18
e 13 21
e 13 22
e 13 25
e 13 29
e 13 32
e 13 37
e 13 38
e 13 47
e 13 48
e 13 50
e 13 54
e 13 56
e 13 57
e 13 61
e 13 63
e 13 66
e 13 73
e 13 81
e 13 82
e 13 85
e 13 87
e 13 90
e 13 93
e 13 94
e 13 95
e 13 99
e 14 15
e 14 20
e 14 27
e 14 29
e 14 31
e 14 36
e 14 38
e 14 39
e 14 41
e 14 45
e 14 50
e 14 56
e 14 60
e 14 61
e 14 65
e 14 66
e 14 67
e 14 76
e 14 81
e 14 89
e 14 90
e 14 92
e 14 93
e 14 94
e 14 95
e 15 16
e 15 20
e 15 24
e 15 29
e 15 30
e 15 31
e 15 37
e 15 46
e 15 50
e 15 51
e 15 53
e 15 55
e 15 56
e 15 58
e 15 61
e 15 69
e 15 71
e 15 73
e 15 75
e 15 81
e 15 88
e 15 90
e 15 93
e 15 94
e 15 95
e 15 96
e 15 99
e 16 23
e 16 24
e 16 25
e 16 28
e 16 40
e 16 42
e 16 46
e 16 54
e 16 57
e 16 58
e 16 71
e 16 73
e 16 74
e 16 75
e 16 81
e 16 82
e 16 83
e 16 87
e 16 88
e 16 91
e 16 92
e 16 93
e 17 18
e 17 21
e 17 30
e 17 33
e 17 34
e 17 36
e 17 38
e 17 42
e 17 43
e 17 45
e 17 53
e 17 57
e 17 59
e 17 62
e 17 67
e 17 68
e 17 69
e 17 74
e 17 77
e 17 79
e 17 83
e 17 84
e 17 86
e 17 90
e 17 94
e 17 97
e 18 21
e 18 22
e 18 24
e 18 26
e 18 34
e 18 37
e 18 40
e 18 41
e 18 43
e 18 45
e 18 48
e 18 55
e 18 64
e 18 68
e 18 69
e 18 71
e 18 77
e 18 79
e 18 81
e 18 85
e 18 87
e 18 91
e 18 94
e 18 97
e 19 20
e 19 21
e 19 23
e 19 27
e 19 32
e 19 35
e 19 38
e 19 43
e 19 44
e 19 45
e 19 47
e 19 49
e 19 50
e 19 51
e 19 55
e 19 65
e 19 67
e 19 71
e 19 72
e 19 74
e 19 77
e 19 80
e 19 81
e 19 94
e 19 100
e 20 23
e 20 28
e 20 30
e 20 31
e 20 33
e 20 36
e 20 37
e 20 38
e 20 39
e 20 43
e 20 44
e 20 45
e 20 46
e 20 47
e 20 49
e 20 51
e 20 53
e 20 55
e 20 61
e 20 63
e 20 65
e 20 66
e 20 79
e 20 81
e 20 91
e 21 22
e 21 30
e 21 33
e 21 34
e 21 35
e 21 37
e 21 42
e 21 45
e 21 50
e 21 57
e 21 62
e 21 67
e 21 68
e 21 71
e 21 72
e 21 80
e 21 81
e 21 84
e 21 85
e 21 87
e 21 100
e 22 25
e 22 26
e 22 27
e 22 37
e 22 39
e 22 41
e 22 43
e 22 46
e 22 50
e 22 51
e 22 53
e 22 57
e 22 58
e 22 61
e 22 62
e 22 63
e 22 64
e 22 65
e 22 69
e 22 74
e 22 75
e 22 81
e 22 85
e 22 87
e 22 89
e 22 92
e 22 96
e 22 98
e 22 100
e 23 38
e 23 42
e 23 43
e 23 44
e 23 47
e 23 49
e 23 51
e 23 55
e 23 59
e 23 60
e 23 62
e 23 63
e 23 66
e 23 76
e 23 78
e 23 81
e 23 82
e 23 83
e 23 87
e 23 90
e 23 91
e 23 92
e 23 93
e 23 95
e 24 25
e 24 33
e 24 40
e 24 41
e 24 42
e 24 44
e 24 45
e 24 48
e 24 52
e 24 55
e 24 58
e 24 64
e 24 70
e 24 73
e 24 75
e 24 78
e 24 81
e 24 86
e 24 88
e 24 91
e 24 95
e 24 98
e 25 29
e 25 33
e 25 40
e 25 44
e 25 47
e 25 52
e 25 53
e 25 57
e 25 63
e 25 65
e 25 69
e 25 70
e 25 75
e 25 78
e 25 82
e 25 86
e 25 89
e 25 92
e 25 95
e 25 100
e 26 27
e 26 30
e 26 32
e 26 34
e 26 39
e 26 41
e 26 44
e 26 51
e 26 54
e 26 58
e 26 59
e 26 61
e 26 62
e 26 64
e 26 68
e 26 70
e 26 71
e 26 74
e 26 75
e 26 82
e 26 98
e 27 31
e 27 38
e 27 39
e 27 51
e 27 58
e 27 60
e 27 61
e 27 62
e 27 64
e 27 74
e 27 76
e 27 79
e 27 80
e 27 86
e 27 87
e 27 88
e 27 92
e 27 94
e 27 99
e 28 33
e 28 36
e 28 40
e 28 46
e 28 47
e 28 48
e 28 54
e 28 60
e 28 61
e 28 63
e 28 67
e 28 71
e 28 74
e 28 75
e 28 78
e 28 79
e 28 84
e 28 85
e 28 90
e 28 91
e 28 92
e 28 98
e 29 31
e 29 35
e 29 36
e 29 41
e 29 47
e 29 51
e 29 52
e 29 58
e 29 66
e 29 67
e 29 69
e 29 71
e 29 76
e 29 81
e 29 82
e 29 83
e 29 85
e 29 89
e 29 96
e 29 97
e 29 99
e 30 31
e 30 33
e 30 37
e 30 41
e 30 42
e 30 44
e 30 46
e 30 53
e 30 54
e 30 55
e 30 57
e 30 62
e 30 64
e 30 67
e 30 68
e 30 69
e 30 72
e 30 75
e 30 82
e 30 84
e 31 35
e 31 37
e 31 38
e 31 46
e 31 49
e 31 52
e 31 53
e 31 55
e 31 58
e 31 60
e 31 61
e 31 66
e 31 76
e 31 77
e 31 83
e 31 85
e 31 92
e 31 97
e 31 100
e 32 34
e 32 38
e 32 48
e 32 54
e 32 55
e 32 57
e 32 59
e 32 63
e 32 65
e 32 66
e 32 67
e 32 70
e 32 73
e 32 74
e 32 77
e 32 84
e 32 91
e 32 98
e 32 99
e 33 36
e 33 42
e 33 44
e 33 52
e 33 57
e 33 61
e 33 62
e 33 63
e 33 67
e 33 68
e 33 70
e 33 78
e 33 79
e 33 84
e 33 86
e 33 91
e 33 95
e 34 43
e 34 46
e 34 47
e 34 52
e 34 59
e 34 64
e 34 68
e 34 69
e 34 70
e 34 73
e 34 77
e 34 79
e 34 89
e 34 93
e 34 94
e 34 97
e 34 98
e 35 39
e 35 45
e 35 48
e 35 49
e 35 50
e 35 52
e 35 53
e 35 58
e 35 66
e 35 71
e 35 72
e 35 79
e 35 80
e 35 83
e 35 84
e 35 85
e 35 94
e 35 97
e 35 100
e 36 37
e 36 38
e 36 39
e 36 41
e 36 53
e 36 60
e 36 61
e 36 63
e 36 67
e 36 72
e 36 73
e 36 74
e 36 76
e 36 77
e 36 78
e 36 79
e 36 81
e 36 82
e 36 83
e 36 86
e 36 89
e 36 90
e 36 91
e 36 96
e 37 39
e 37 40
e 37 42
e 37 46
e 37 51
e 37 53
e 37 54
e 37 55
e 37 56
e 37 60
e 37 70
e 37 72
e 37 73
e 37 77
e 37 78
e 37 80
e 37 81
e 37 82
e 37 85
e 37 87
e 37 89
e 37 96
e 37 97
e 38 43
e 38 44
e 38 47
e 38 48
e 38 49
e 38 51
e 38 53
e 38 54
e 38 57
e 38 60
e 38 63
e 38 66
e 38 73
e 38 74
e 38 81
e 38 83
e 38 86
e 38 90
e 38 92
e 38 99
e 39 45
e 39 48
e 39 49
e 39 51
e 39 53
e 39 58
e 39 60
e 39 61
e 39 62
e 39 64
e 39 65
e 39 66
e 39 72
e 39 73
e 39 74
e 39 77
e 39 78
e 39 82
e 39 84
e 39 94
e 39 96
e 40 41
e 40 42
e 40 45
e 40 47
e 40 48
e 40 51
e 40 54
e 40 55
e 40 56
e 40 57
e 40 60
e 40 64
e 40 70
e 40 75
e 40 80
e 40 84
e 40 85
e 40 89
e 40 90
e 40 91
e 40 97
e 40 98
e 41 43
e 41 44
e 41 45
e 41 46
e 41 48
e 41 50
e 41 54
e 41 55
e 41 57
e 41 64
e 41 67
e 41 75
e 41 76
e 41 81
e 41 82
e 41 89
e 41 91
e 41 96
e 41 98
e 42 51
e 42 54
e 42 56
e 42 57
e 42 62
e 42 67
e 42 68
e 42 70
e 42 80
e 42 82
e 42 83
e 42 84
e 42 87
e 42 89
e 42 91
e 42 92
e 42 93
e 42 97
e 42 98
e 43 44
e 43 46
e 43 47
e 43 49
e 43 50
e 43 51
e 43 56
e 43 57
e 43 58
e 43 69
e 43 72
e 43 77
e 43 79
e 43 81
e 43 94
e 43 96
e 43 97
e 43 98
e 44 47
e 44 49
e 44 51
e 44 52
e 44 54
e 44 70
e 44 75
e 44 78
e 44 81
e 44 82
e 44 85
e 44 86
e 44 93
e 44 95
e 44 99
e 45 48
e 45 50
e 45 55
e 45 59
e 45 64
e 45 65
e 45 66
e 45 71
e 45 72
e 45 80
e 45 91
e 45 100
e 46 47
e 46 50
e 46 52
e 46 53
e 46 54
e 46 55
e 46 57
e 46 64
e 46 68
e 46 71
e 46 73
e 46 74
e 46 89
e 46 93
e 46 96
e 46 98
e 47 49
e 47 51
e 47 52
e 47 60
e 47 64
e 47 68
e 47 73
e 47 75
e 47 81
e 47 82
e 47 84
e 47 85
e 47 89
e 47 90
e 47 93
e 47 98
e 48 49
e 48 53
e 48 54
e 48 55
e 48 57
e 48 63
e 48 64
e 48 66
e 48 67
e 48 73
e 48 78
e 48 84
e 48 91
e 48 92
e 48 94
e 48 99
e 49 51
e 49 53
e 49 56
e 49 59
e 49 61
e 49 65
e 49 68
e 49 76
e 49 77
e 49 81
e 49 84
e 49 88
e 49 94
e 49 96
e 49 100
e 50 56
e 50 57
e 50 61
e 50 71
e 50 72
e 50 80
e 50 88
e 50 90
e 50 93
e 50 94
e 50 95
e 50 96
e 50 97
e 50 98
e 50 100
e 51 54
e 51 56
e 51 58
e 51 61
e 51 62
e 51 64
e 51 69
e 51 70
e 51 71
e 51 74
e 51 80
e 51 81
e 51 89
e 51 96
e 51 97
e 51 99
e 52 58
e 52 64
e 52 66
e 52 68
e 52 70
e 52 73
e 52 78
e 52 83
e 52 85
e 52 86
e 52 87
e 52 89
e 52 93
e 52 95
e 52 97
e 53 55
e 53 63
e 53 65
e 53 69
e 53 74
e 53 75
e 53 83
e 53 84
e 53 86
e 53 89
e 53 90
e 53 92
e 53 94
e 53 100
e 54 56
e 54 57
e 54 63
e 54 66
e 54 70
e 54 71
e 54 73
e 54 74
e 54 75
e 54 80
e 54 82
e 54 89
e 54 97
e 54 99
e 55 59
e 55 60
e 55 62
e 55 63
e 55 64
e 55 65
e 55 67
e 55 74
e 55 77
e 55 91
e 55 95
e 56 58
e 56 59
e 56 61
e 56 65
e 56 68
e 56 70
e 56 72
e 56 80
e 56 88
e 56 89
e 56 90
e 56 93
e 56 94
e 56 95
e 56 96
e 56 97
e 57 62
e 57 63
e 57 66
e 57 67
e 57 68
e 57 73
e 57 84
e 57 96
e 57 98
e 57 99
e 58 61
e 58 62
e 58 64
e 58 66
e 58 72
e 58 73
e 58 74
e 58 75
e 58 81
e 58 83
e 58 85
e 58 88
e 58 97
e 59 60
e 59 62
e 59 63
e 59 65
e 59 68
e 59 70
e 59 88
e 59 95
e 59 96
e 59 98
e 60 62
e 60 63
e 60 72
e 60 73
e 60 75
e 60 77
e 60 78
e 60 82
e 60 84
e 60 85
e 60 90
e 60 92
e 60 95
e 60 96
e 60 98
e 61 62
e 61 63
e 61 64
e 61 74
e 61 76
e 61 77
e 61 79
e 61 90
e 61 91
e 61 93
e 61 94
e 61 95
e 61 100
e 62 63
e 62 64
e 62 67
e 62 68
e 62 74
e 62 84
e 62 95
e 62 100
e 63 65
e 63 66
e 63 69
e 63 73
e 63 75
e 63 79
e 63 89
e 63 91
e 63 92
e 63 95
e 63 99
e 63 100
e 64 68
e 64 69
e 64 72
e 64 73
e 64 74
e 64 89
e 64 91
e 64 93
e 65 66
e 65 67
e 65 68
e 65 69
e 65 74
e 65 75
e 65 77
e 65 88
e 65 89
e 65 92
e 65 96
e 65 100
e 66 73
e 66 76
e 66 78
e 66 83
e 66 85
e 66 90
e 66 97
e 66 99
e 67 68
e 67 74
e 67 76
e 67 77
e 67 78
e 67 81
e 67 84
e 67 89
e 67 92
e 68 71
e 68 73
e 68 84
e 68 88
e 68 89
e 68 93
e 68 96
e 69 71
e 69 72
e 69 75
e 69 77
e 69 79
e 69 89
e 69 92
e 69 94
e 69 96
e 69 97
e 69 99
e 69 100
e 70 78
e 70 80
e 70 86
e 70 89
e 70 95
e 70 97
e 70 98
e 71 72
e 71 74
e 71 80
e 71 96
e 71 99
e 71 100
e 72 73
e 72 77
e 72 78
e 72 80
e 72 82
e 72 96
e 72 100
e 73 75
e 73 77
e 73 78
e 73 81
e 73 82
e 73 88
e 73 89
e 73 93
e 73 96
e 73 99
e 74 77
e 74 83
e 74 86
e 74 90
e 75 81
e 75 82
e 75 84
e 75 85
e 75 88
e 75 89
e 75 90
e 75 92
e 75 98
e 75 100
e 76 77
e 76 78
e 76 79
e 76 80
e 76 81
e 76 86
e 76 87
e 76 88
e 76 89
e 76 90
e 76 99
e 76 100
e 77 78
e 77 79
e 77 82
e 77 94
e 77 96
e 77 97
e 77 100
e 78 82
e 78 86
e 78 90
e 78 92
e 78 95
e 78 96
e 79 80
e 79 86
e 79 87
e 79 88
e 79 91
e 79 94
e 79 97
e 79 99
e 80 86
e 80 87
e 80 88
e 80 89
e 80 97
e 80 99
e 80 100
e 81 85
e 81 87
e 81 88
e 81 89
e 82 83
e 82 87
e 82 91
e 82 92
e 82 93
e 82 96
e 83 85
e 83 86
e 83 87
e 83 90
e 83 91
e 83 92
e 83 93
e 83 95
e 83 97
e 84 85
e 84 90
e 84 91
e 84 94
e 84 98
e 85 87
e 85 90
e 85 93
e 85 97
e 85 98
e 85 99
e 86 87
e 86 88
e 86 90
e 86 95
e 86 99
e 87 88
e 87 91
e 87 92
e 87 93
e 87 99
e 88 96
e 88 97
e 88 99
e 89 92
e 89 93
e 89 97
e 89 100
e 90 93
e 90 94
e 90 95
e 90 98
e 91 92
e 91 93
e 92 93
e 92 100
e 93 94
e 93 95
e 93 99
e 94 95
e 94 97
e 96 98
e 96 99
